p tw 155 32551 2 
1 3 
1 4 
1 5 
1 6 
1 7 
1 8 
1 9 
1 10 
1 11 
1 12 
1 13 
1 14 
1 15 
1 16 
1 17 
1 18 
1 19 
1 20 
1 21 
1 22 
1 23 
1 24 
1 25 
1 26 
1 27 
1 28 
1 29 
1 39 
1 54 
1 64 
1 70 
1 85 
1 92 
1 100 
1 107 
1 117 
1 124 
1 148 
1 149 
1 153 
1 155 
2 3 
2 4 
2 5 
2 6 
2 7 
2 8 
2 9 
2 10 
2 11 
2 12 
2 13 
2 14 
2 15 
2 16 
2 26 
2 30 
2 31 
2 32 
2 33 
2 34 
2 35 
2 36 
2 37 
2 38 
2 39 
2 40 
2 41 
2 42 
2 47 
2 66 
2 69 
2 85 
2 90 
2 97 
2 122 
2 139 
2 142 
2 144 
2 147 
2 151 
2 154 
3 4 
3 5 
3 6 
3 7 
3 8 
3 9 
3 10 
3 11 
3 12 
3 13 
3 14 
3 15 
3 17 
3 25 
3 30 
3 40 
3 43 
3 44 
3 45 
3 46 
3 47 
3 48 
3 49 
3 50 
3 51 
3 52 
3 53 
3 54 
3 58 
3 72 
3 81 
3 91 
3 100 
3 114 
3 119 
3 125 
3 128 
3 140 
3 141 
3 142 
4 5 
4 6 
4 7 
4 8 
4 9 
4 10 
4 11 
4 12 
4 13 
4 14 
4 15 
4 17 
4 24 
4 31 
4 36 
4 51 
4 55 
4 56 
4 57 
4 58 
4 59 
4 60 
4 61 
4 62 
4 63 
4 64 
4 65 
4 66 
4 71 
4 80 
4 86 
4 114 
4 118 
4 124 
4 132 
4 136 
4 137 
4 138 
4 139 
5 6 
5 7 
5 8 
5 9 
5 10 
5 11 
5 12 
5 13 
5 14 
5 15 
5 18 
5 29 
5 32 
5 42 
5 43 
5 49 
5 55 
5 65 
5 67 
5 68 
5 69 
5 70 
5 71 
5 72 
5 73 
5 74 
5 75 
5 76 
5 78 
5 87 
5 101 
5 113 
5 131 
5 138 
5 141 
5 146 
5 154 
5 155 
6 7 
6 8 
6 9 
6 10 
6 11 
6 12 
6 13 
6 14 
6 15 
6 19 
6 23 
6 33 
6 39 
6 44 
6 50 
6 56 
6 60 
6 67 
6 71 
6 77 
6 78 
6 79 
6 80 
6 81 
6 82 
6 83 
6 84 
6 85 
6 89 
6 98 
6 106 
6 112 
6 122 
6 128 
6 129 
6 130 
6 131 
7 8 
7 9 
7 10 
7 11 
7 12 
7 13 
7 14 
7 15 
7 20 
7 22 
7 34 
7 38 
7 44 
7 49 
7 55 
7 57 
7 68 
7 79 
7 86 
7 87 
7 88 
7 89 
7 90 
7 91 
7 92 
7 93 
7 94 
7 95 
7 111 
7 116 
7 122 
7 123 
7 124 
7 125 
7 126 
7 127 
8 9 
8 10 
8 11 
8 12 
8 13 
8 14 
8 15 
8 18 
8 25 
8 35 
8 37 
8 45 
8 46 
8 56 
8 62 
8 67 
8 86 
8 93 
8 95 
8 96 
8 97 
8 98 
8 99 
8 100 
8 101 
8 102 
8 103 
8 121 
8 126 
8 130 
8 134 
8 137 
8 150 
8 153 
8 154 
9 10 
9 11 
9 12 
9 13 
9 14 
9 15 
9 21 
9 23 
9 30 
9 36 
9 46 
9 58 
9 59 
9 69 
9 73 
9 77 
9 83 
9 87 
9 94 
9 95 
9 103 
9 104 
9 105 
9 106 
9 107 
9 108 
9 109 
9 119 
9 123 
9 138 
9 145 
9 149 
9 150 
9 151 
10 11 
10 12 
10 13 
10 14 
10 15 
10 19 
10 28 
10 37 
10 41 
10 47 
10 53 
10 59 
10 63 
10 68 
10 70 
10 82 
10 88 
10 96 
10 99 
10 104 
10 108 
10 110 
10 111 
10 112 
10 113 
10 114 
10 115 
10 118 
10 126 
10 129 
10 142 
10 146 
10 149 
11 12 
11 13 
11 14 
11 15 
11 20 
11 26 
11 32 
11 35 
11 48 
11 52 
11 60 
11 63 
11 74 
11 78 
11 79 
11 93 
11 97 
11 105 
11 107 
11 110 
11 112 
11 116 
11 117 
11 118 
11 119 
11 120 
11 121 
11 133 
11 136 
11 141 
11 143 
11 145 
12 13 
12 14 
12 15 
12 16 
12 29 
12 41 
12 43 
12 51 
12 61 
12 64 
12 76 
12 77 
12 81 
12 89 
12 90 
12 99 
12 102 
12 109 
12 110 
12 113 
12 117 
12 123 
12 127 
12 128 
12 132 
12 133 
12 134 
12 135 
12 143 
12 147 
12 150 
13 14 
13 15 
13 21 
13 27 
13 33 
13 38 
13 50 
13 54 
13 57 
13 62 
13 72 
13 73 
13 82 
13 92 
13 96 
13 101 
13 108 
13 115 
13 120 
13 121 
13 127 
13 131 
13 132 
13 135 
13 139 
13 140 
13 143 
13 144 
13 145 
13 152 
14 15 
14 24 
14 27 
14 31 
14 42 
14 45 
14 48 
14 61 
14 74 
14 75 
14 83 
14 84 
14 88 
14 91 
14 103 
14 106 
14 109 
14 111 
14 120 
14 125 
14 129 
14 133 
14 137 
14 144 
14 146 
14 147 
14 148 
14 152 
14 153 
15 22 
15 28 
15 34 
15 40 
15 52 
15 53 
15 65 
15 66 
15 75 
15 76 
15 80 
15 84 
15 94 
15 98 
15 102 
15 104 
15 105 
15 115 
15 116 
15 130 
15 134 
15 135 
15 136 
15 140 
15 148 
15 151 
15 152 
15 155 
16 17 
16 18 
16 19 
16 20 
16 21 
16 22 
16 23 
16 24 
16 25 
16 26 
16 27 
16 28 
16 29 
16 30 
16 31 
16 32 
16 33 
16 34 
16 35 
16 36 
16 37 
16 38 
16 39 
16 40 
16 41 
16 42 
16 43 
16 61 
16 77 
16 90 
16 99 
16 113 
16 117 
16 123 
16 128 
16 132 
16 133 
16 134 
16 135 
17 18 
17 19 
17 20 
17 21 
17 22 
17 23 
17 24 
17 25 
17 26 
17 27 
17 28 
17 29 
17 30 
17 31 
17 43 
17 44 
17 45 
17 46 
17 47 
17 48 
17 49 
17 50 
17 51 
17 52 
17 53 
17 54 
17 55 
17 56 
17 57 
17 58 
17 59 
17 60 
17 61 
17 62 
17 63 
17 64 
17 65 
17 66 
18 19 
18 20 
18 21 
18 22 
18 23 
18 24 
18 25 
18 26 
18 27 
18 28 
18 29 
18 32 
18 35 
18 43 
18 45 
18 55 
18 56 
18 67 
18 68 
18 69 
18 70 
18 71 
18 72 
18 73 
18 74 
18 75 
18 76 
18 86 
18 95 
18 96 
18 97 
18 98 
18 99 
18 100 
18 101 
18 102 
18 103 
19 20 
19 21 
19 22 
19 23 
19 24 
19 25 
19 26 
19 27 
19 28 
19 29 
19 33 
19 37 
19 44 
19 47 
19 56 
19 59 
19 67 
19 70 
19 77 
19 78 
19 79 
19 80 
19 81 
19 82 
19 83 
19 84 
19 85 
19 88 
19 96 
19 104 
19 110 
19 111 
19 112 
19 113 
19 114 
19 115 
20 21 
20 22 
20 23 
20 24 
20 25 
20 26 
20 27 
20 28 
20 29 
20 32 
20 34 
20 44 
20 48 
20 57 
20 60 
20 68 
20 78 
20 86 
20 87 
20 88 
20 89 
20 90 
20 91 
20 92 
20 93 
20 94 
20 97 
20 105 
20 110 
20 116 
20 117 
20 118 
20 119 
20 120 
20 121 
21 22 
21 23 
21 24 
21 25 
21 26 
21 27 
21 28 
21 29 
21 36 
21 38 
21 46 
21 50 
21 58 
21 62 
21 69 
21 73 
21 77 
21 82 
21 87 
21 92 
21 95 
21 101 
21 104 
21 105 
21 106 
21 107 
21 108 
21 109 
21 115 
21 120 
21 132 
21 140 
21 143 
21 144 
22 23 
22 24 
22 25 
22 26 
22 27 
22 28 
22 29 
22 38 
22 40 
22 49 
22 53 
22 55 
22 66 
22 75 
22 79 
22 84 
22 94 
22 95 
22 102 
22 105 
22 111 
22 115 
22 116 
22 122 
22 123 
22 124 
22 125 
22 126 
22 127 
22 130 
22 135 
22 136 
22 155 
23 24 
23 25 
23 26 
23 27 
23 28 
23 29 
23 30 
23 39 
23 50 
23 59 
23 60 
23 71 
23 73 
23 83 
23 89 
23 94 
23 98 
23 103 
23 106 
23 112 
23 119 
23 122 
23 123 
23 128 
23 129 
23 130 
23 131 
23 138 
23 145 
23 149 
23 150 
23 151 
24 25 
24 26 
24 27 
24 28 
24 29 
24 36 
24 42 
24 48 
24 51 
24 61 
24 71 
24 74 
24 80 
24 84 
24 86 
24 88 
24 103 
24 109 
24 114 
24 118 
24 124 
24 125 
24 129 
24 132 
24 136 
24 137 
24 138 
24 139 
24 144 
24 152 
24 153 
25 26 
25 27 
25 28 
25 29 
25 37 
25 40 
25 46 
25 58 
25 62 
25 67 
25 72 
25 81 
25 91 
25 93 
25 100 
25 114 
25 119 
25 121 
25 125 
25 126 
25 128 
25 130 
25 134 
25 137 
25 140 
25 141 
25 142 
25 150 
25 153 
25 154 
26 27 
26 28 
26 29 
26 35 
26 47 
26 52 
26 63 
26 66 
26 69 
26 74 
26 79 
26 85 
26 90 
26 93 
26 97 
26 107 
26 112 
26 122 
26 133 
26 136 
26 139 
26 141 
26 142 
26 143 
26 144 
26 145 
26 147 
26 151 
26 154 
27 28 
27 29 
27 31 
27 33 
27 45 
27 54 
27 57 
27 72 
27 75 
27 83 
27 91 
27 96 
27 106 
27 108 
27 111 
27 120 
27 121 
27 127 
27 131 
27 133 
27 135 
27 137 
27 139 
27 145 
27 146 
27 147 
27 148 
27 152 
28 29 
28 34 
28 41 
28 52 
28 53 
28 63 
28 65 
28 68 
28 76 
28 80 
28 82 
28 98 
28 99 
28 104 
28 108 
28 116 
28 118 
28 126 
28 129 
28 134 
28 140 
28 142 
28 146 
28 148 
28 149 
28 151 
28 152 
29 41 
29 42 
29 49 
29 51 
29 64 
29 65 
29 76 
29 78 
29 81 
29 87 
29 89 
29 101 
29 102 
29 109 
29 110 
29 113 
29 127 
29 131 
29 138 
29 141 
29 143 
29 146 
29 147 
29 150 
29 154 
29 155 
30 31 
30 32 
30 33 
30 34 
30 35 
30 36 
30 37 
30 38 
30 39 
30 40 
30 41 
30 42 
30 43 
30 44 
30 45 
30 46 
30 47 
30 48 
30 49 
30 50 
30 51 
30 52 
30 53 
30 54 
30 59 
30 73 
30 83 
30 94 
30 103 
30 119 
30 123 
30 138 
30 145 
30 149 
30 150 
30 151 
31 32 
31 33 
31 34 
31 35 
31 36 
31 37 
31 38 
31 39 
31 40 
31 41 
31 42 
31 45 
31 55 
31 56 
31 57 
31 58 
31 59 
31 60 
31 61 
31 62 
31 63 
31 64 
31 65 
31 66 
31 75 
31 83 
31 91 
31 106 
31 111 
31 120 
31 133 
31 137 
31 146 
31 147 
31 148 
32 33 
32 34 
32 35 
32 36 
32 37 
32 38 
32 39 
32 40 
32 41 
32 42 
32 43 
32 48 
32 55 
32 60 
32 67 
32 68 
32 69 
32 70 
32 71 
32 72 
32 73 
32 74 
32 75 
32 76 
32 78 
32 97 
32 105 
32 110 
32 116 
32 117 
32 118 
32 119 
32 120 
32 121 
33 34 
33 35 
33 36 
33 37 
33 38 
33 39 
33 40 
33 41 
33 42 
33 44 
33 54 
33 56 
33 57 
33 67 
33 72 
33 77 
33 78 
33 79 
33 80 
33 81 
33 82 
33 83 
33 84 
33 85 
33 96 
33 108 
33 121 
33 127 
33 131 
33 135 
33 139 
33 145 
33 152 
34 35 
34 36 
34 37 
34 38 
34 39 
34 40 
34 41 
34 42 
34 44 
34 52 
34 57 
34 65 
34 68 
34 76 
34 80 
34 86 
34 87 
34 88 
34 89 
34 90 
34 91 
34 92 
34 93 
34 94 
34 98 
34 104 
34 116 
34 134 
34 140 
34 148 
34 151 
34 152 
35 36 
35 37 
35 38 
35 39 
35 40 
35 41 
35 42 
35 45 
35 52 
35 56 
35 63 
35 74 
35 79 
35 86 
35 93 
35 95 
35 96 
35 97 
35 98 
35 99 
35 100 
35 101 
35 102 
35 103 
35 107 
35 112 
35 133 
35 136 
35 141 
35 143 
35 145 
36 37 
36 38 
36 39 
36 40 
36 41 
36 42 
36 46 
36 51 
36 58 
36 69 
36 71 
36 77 
36 80 
36 86 
36 87 
36 95 
36 104 
36 105 
36 106 
36 107 
36 108 
36 109 
36 114 
36 118 
36 124 
36 132 
36 136 
36 137 
36 138 
36 139 
37 38 
37 39 
37 40 
37 41 
37 42 
37 46 
37 47 
37 59 
37 62 
37 67 
37 70 
37 88 
37 93 
37 96 
37 104 
37 110 
37 111 
37 112 
37 113 
37 114 
37 115 
37 121 
37 126 
37 130 
37 134 
37 137 
37 150 
37 153 
37 154 
38 39 
38 40 
38 41 
38 42 
38 49 
38 50 
38 55 
38 62 
38 73 
38 79 
38 82 
38 92 
38 95 
38 101 
38 111 
38 115 
38 116 
38 120 
38 122 
38 123 
38 124 
38 125 
38 126 
38 127 
38 132 
38 140 
38 143 
38 144 
39 40 
39 41 
39 42 
39 50 
39 54 
39 60 
39 64 
39 70 
39 71 
39 85 
39 89 
39 92 
39 98 
39 100 
39 106 
39 107 
39 112 
39 117 
39 122 
39 124 
39 128 
39 129 
39 130 
39 131 
39 148 
39 149 
39 153 
39 155 
40 41 
40 42 
40 53 
40 58 
40 66 
40 72 
40 75 
40 81 
40 84 
40 91 
40 94 
40 100 
40 102 
40 105 
40 114 
40 115 
40 119 
40 125 
40 128 
40 130 
40 135 
40 136 
40 140 
40 141 
40 142 
40 155 
41 42 
41 51 
41 53 
41 63 
41 64 
41 68 
41 76 
41 81 
41 82 
41 89 
41 99 
41 102 
41 108 
41 109 
41 110 
41 118 
41 126 
41 127 
41 129 
41 142 
41 143 
41 146 
41 147 
41 149 
41 150 
42 48 
42 49 
42 61 
42 65 
42 74 
42 78 
42 84 
42 87 
42 88 
42 101 
42 103 
42 109 
42 113 
42 125 
42 129 
42 131 
42 138 
42 141 
42 144 
42 146 
42 152 
42 153 
42 154 
42 155 
43 44 
43 45 
43 46 
43 47 
43 48 
43 49 
43 50 
43 51 
43 52 
43 53 
43 54 
43 55 
43 61 
43 67 
43 68 
43 69 
43 70 
43 71 
43 72 
43 73 
43 74 
43 75 
43 76 
43 77 
43 90 
43 99 
43 113 
43 117 
43 123 
43 128 
43 132 
43 133 
43 134 
43 135 
44 45 
44 46 
44 47 
44 48 
44 49 
44 50 
44 51 
44 52 
44 53 
44 54 
44 56 
44 57 
44 67 
44 68 
44 77 
44 78 
44 79 
44 80 
44 81 
44 82 
44 83 
44 84 
44 85 
44 86 
44 87 
44 88 
44 89 
44 90 
44 91 
44 92 
44 93 
44 94 
45 46 
45 47 
45 48 
45 49 
45 50 
45 51 
45 52 
45 53 
45 54 
45 56 
45 75 
45 83 
45 86 
45 91 
45 95 
45 96 
45 97 
45 98 
45 99 
45 100 
45 101 
45 102 
45 103 
45 106 
45 111 
45 120 
45 133 
45 137 
45 146 
45 147 
45 148 
46 47 
46 48 
46 49 
46 50 
46 51 
46 52 
46 53 
46 54 
46 58 
46 62 
46 67 
46 69 
46 77 
46 87 
46 93 
46 95 
46 104 
46 105 
46 106 
46 107 
46 108 
46 109 
46 121 
46 126 
46 130 
46 134 
46 137 
46 150 
46 153 
46 154 
47 48 
47 49 
47 50 
47 51 
47 52 
47 53 
47 54 
47 59 
47 66 
47 69 
47 70 
47 85 
47 88 
47 90 
47 96 
47 97 
47 104 
47 110 
47 111 
47 112 
47 113 
47 114 
47 115 
47 122 
47 139 
47 142 
47 144 
47 147 
47 151 
47 154 
48 49 
48 50 
48 51 
48 52 
48 53 
48 54 
48 60 
48 61 
48 74 
48 78 
48 84 
48 88 
48 97 
48 103 
48 105 
48 109 
48 110 
48 116 
48 117 
48 118 
48 119 
48 120 
48 121 
48 125 
48 129 
48 144 
48 152 
48 153 
49 50 
49 51 
49 52 
49 53 
49 54 
49 55 
49 65 
49 78 
49 79 
49 87 
49 95 
49 101 
49 111 
49 113 
49 116 
49 122 
49 123 
49 124 
49 125 
49 126 
49 127 
49 131 
49 138 
49 141 
49 146 
49 154 
49 155 
50 51 
50 52 
50 53 
50 54 
50 60 
50 62 
50 71 
50 73 
50 82 
50 89 
50 92 
50 98 
50 101 
50 106 
50 112 
50 115 
50 120 
50 122 
50 128 
50 129 
50 130 
50 131 
50 132 
50 140 
50 143 
50 144 
51 52 
51 53 
51 54 
51 64 
51 71 
51 76 
51 80 
51 81 
51 86 
51 89 
51 102 
51 109 
51 110 
51 114 
51 118 
51 124 
51 127 
51 132 
51 136 
51 137 
51 138 
51 139 
51 143 
51 147 
51 150 
52 53 
52 54 
52 63 
52 65 
52 74 
52 76 
52 79 
52 80 
52 93 
52 98 
52 104 
52 107 
52 112 
52 116 
52 133 
52 134 
52 136 
52 140 
52 141 
52 143 
52 145 
52 148 
52 151 
52 152 
53 54 
53 63 
53 66 
53 68 
53 75 
53 82 
53 84 
53 94 
53 99 
53 102 
53 105 
53 108 
53 115 
53 118 
53 126 
53 129 
53 130 
53 135 
53 136 
53 142 
53 146 
53 149 
53 155 
54 57 
54 64 
54 70 
54 72 
54 85 
54 92 
54 96 
54 100 
54 107 
54 108 
54 117 
54 121 
54 124 
54 127 
54 131 
54 135 
54 139 
54 145 
54 148 
54 149 
54 152 
54 153 
54 155 
55 56 
55 57 
55 58 
55 59 
55 60 
55 61 
55 62 
55 63 
55 64 
55 65 
55 66 
55 67 
55 68 
55 69 
55 70 
55 71 
55 72 
55 73 
55 74 
55 75 
55 76 
55 79 
55 95 
55 111 
55 116 
55 122 
55 123 
55 124 
55 125 
55 126 
55 127 
56 57 
56 58 
56 59 
56 60 
56 61 
56 62 
56 63 
56 64 
56 65 
56 66 
56 67 
56 77 
56 78 
56 79 
56 80 
56 81 
56 82 
56 83 
56 84 
56 85 
56 86 
56 95 
56 96 
56 97 
56 98 
56 99 
56 100 
56 101 
56 102 
56 103 
57 58 
57 59 
57 60 
57 61 
57 62 
57 63 
57 64 
57 65 
57 66 
57 68 
57 72 
57 86 
57 87 
57 88 
57 89 
57 90 
57 91 
57 92 
57 93 
57 94 
57 96 
57 108 
57 121 
57 127 
57 131 
57 135 
57 139 
57 145 
57 152 
58 59 
58 60 
58 61 
58 62 
58 63 
58 64 
58 65 
58 66 
58 69 
58 72 
58 77 
58 81 
58 87 
58 91 
58 95 
58 100 
58 104 
58 105 
58 106 
58 107 
58 108 
58 109 
58 114 
58 119 
58 125 
58 128 
58 140 
58 141 
58 142 
59 60 
59 61 
59 62 
59 63 
59 64 
59 65 
59 66 
59 70 
59 73 
59 83 
59 88 
59 94 
59 96 
59 103 
59 104 
59 110 
59 111 
59 112 
59 113 
59 114 
59 115 
59 119 
59 123 
59 138 
59 145 
59 149 
59 150 
59 151 
60 61 
60 62 
60 63 
60 64 
60 65 
60 66 
60 71 
60 78 
60 89 
60 97 
60 98 
60 105 
60 106 
60 110 
60 112 
60 116 
60 117 
60 118 
60 119 
60 120 
60 121 
60 122 
60 128 
60 129 
60 130 
60 131 
61 62 
61 63 
61 64 
61 65 
61 66 
61 74 
61 77 
61 84 
61 88 
61 90 
61 99 
61 103 
61 109 
61 113 
61 117 
61 123 
61 125 
61 128 
61 129 
61 132 
61 133 
61 134 
61 135 
61 144 
61 152 
61 153 
62 63 
62 64 
62 65 
62 66 
62 67 
62 73 
62 82 
62 92 
62 93 
62 101 
62 115 
62 120 
62 121 
62 126 
62 130 
62 132 
62 134 
62 137 
62 140 
62 143 
62 144 
62 150 
62 153 
62 154 
63 64 
63 65 
63 66 
63 68 
63 74 
63 79 
63 82 
63 93 
63 99 
63 107 
63 108 
63 112 
63 118 
63 126 
63 129 
63 133 
63 136 
63 141 
63 142 
63 143 
63 145 
63 146 
63 149 
64 65 
64 66 
64 70 
64 76 
64 81 
64 85 
64 89 
64 92 
64 100 
64 102 
64 107 
64 109 
64 110 
64 117 
64 124 
64 127 
64 143 
64 147 
64 148 
64 149 
64 150 
64 153 
64 155 
65 66 
65 76 
65 78 
65 80 
65 87 
65 98 
65 101 
65 104 
65 113 
65 116 
65 131 
65 134 
65 138 
65 140 
65 141 
65 146 
65 148 
65 151 
65 152 
65 154 
65 155 
66 69 
66 75 
66 84 
66 85 
66 90 
66 94 
66 97 
66 102 
66 105 
66 115 
66 122 
66 130 
66 135 
66 136 
66 139 
66 142 
66 144 
66 147 
66 151 
66 154 
66 155 
67 68 
67 69 
67 70 
67 71 
67 72 
67 73 
67 74 
67 75 
67 76 
67 77 
67 78 
67 79 
67 80 
67 81 
67 82 
67 83 
67 84 
67 85 
67 93 
67 121 
67 126 
67 130 
67 134 
67 137 
67 150 
67 153 
67 154 
68 69 
68 70 
68 71 
68 72 
68 73 
68 74 
68 75 
68 76 
68 82 
68 86 
68 87 
68 88 
68 89 
68 90 
68 91 
68 92 
68 93 
68 94 
68 99 
68 108 
68 118 
68 126 
68 129 
68 142 
68 146 
68 149 
69 70 
69 71 
69 72 
69 73 
69 74 
69 75 
69 76 
69 77 
69 85 
69 87 
69 90 
69 95 
69 97 
69 104 
69 105 
69 106 
69 107 
69 108 
69 109 
69 122 
69 139 
69 142 
69 144 
69 147 
69 151 
69 154 
70 71 
70 72 
70 73 
70 74 
70 75 
70 76 
70 85 
70 88 
70 92 
70 96 
70 100 
70 104 
70 107 
70 110 
70 111 
70 112 
70 113 
70 114 
70 115 
70 117 
70 124 
70 148 
70 149 
70 153 
70 155 
71 72 
71 73 
71 74 
71 75 
71 76 
71 80 
71 86 
71 89 
71 98 
71 106 
71 112 
71 114 
71 118 
71 122 
71 124 
71 128 
71 129 
71 130 
71 131 
71 132 
71 136 
71 137 
71 138 
71 139 
72 73 
72 74 
72 75 
72 76 
72 81 
72 91 
72 96 
72 100 
72 108 
72 114 
72 119 
72 121 
72 125 
72 127 
72 128 
72 131 
72 135 
72 139 
72 140 
72 141 
72 142 
72 145 
72 152 
73 74 
73 75 
73 76 
73 82 
73 83 
73 92 
73 94 
73 101 
73 103 
73 115 
73 119 
73 120 
73 123 
73 132 
73 138 
73 140 
73 143 
73 144 
73 145 
73 149 
73 150 
73 151 
74 75 
74 76 
74 79 
74 84 
74 88 
74 93 
74 103 
74 107 
74 109 
74 112 
74 125 
74 129 
74 133 
74 136 
74 141 
74 143 
74 144 
74 145 
74 152 
74 153 
75 76 
75 83 
75 84 
75 91 
75 94 
75 102 
75 105 
75 106 
75 111 
75 115 
75 120 
75 130 
75 133 
75 135 
75 136 
75 137 
75 146 
75 147 
75 148 
75 155 
76 80 
76 81 
76 89 
76 98 
76 102 
76 104 
76 109 
76 110 
76 116 
76 127 
76 134 
76 140 
76 143 
76 147 
76 148 
76 150 
76 151 
76 152 
77 78 
77 79 
77 80 
77 81 
77 82 
77 83 
77 84 
77 85 
77 87 
77 90 
77 95 
77 99 
77 104 
77 105 
77 106 
77 107 
77 108 
77 109 
77 113 
77 117 
77 123 
77 128 
77 132 
77 133 
77 134 
77 135 
78 79 
78 80 
78 81 
78 82 
78 83 
78 84 
78 85 
78 87 
78 97 
78 101 
78 105 
78 110 
78 113 
78 116 
78 117 
78 118 
78 119 
78 120 
78 121 
78 131 
78 138 
78 141 
78 146 
78 154 
78 155 
79 80 
79 81 
79 82 
79 83 
79 84 
79 85 
79 93 
79 95 
79 107 
79 111 
79 112 
79 116 
79 122 
79 123 
79 124 
79 125 
79 126 
79 127 
79 133 
79 136 
79 141 
79 143 
79 145 
80 81 
80 82 
80 83 
80 84 
80 85 
80 86 
80 98 
80 104 
80 114 
80 116 
80 118 
80 124 
80 132 
80 134 
80 136 
80 137 
80 138 
80 139 
80 140 
80 148 
80 151 
80 152 
81 82 
81 83 
81 84 
81 85 
81 89 
81 91 
81 100 
81 102 
81 109 
81 110 
81 114 
81 119 
81 125 
81 127 
81 128 
81 140 
81 141 
81 142 
81 143 
81 147 
81 150 
82 83 
82 84 
82 85 
82 92 
82 99 
82 101 
82 108 
82 115 
82 118 
82 120 
82 126 
82 129 
82 132 
82 140 
82 142 
82 143 
82 144 
82 146 
82 149 
83 84 
83 85 
83 91 
83 94 
83 103 
83 106 
83 111 
83 119 
83 120 
83 123 
83 133 
83 137 
83 138 
83 145 
83 146 
83 147 
83 148 
83 149 
83 150 
83 151 
84 85 
84 88 
84 94 
84 102 
84 103 
84 105 
84 109 
84 115 
84 125 
84 129 
84 130 
84 135 
84 136 
84 144 
84 152 
84 153 
84 155 
85 90 
85 92 
85 97 
85 100 
85 107 
85 117 
85 122 
85 124 
85 139 
85 142 
85 144 
85 147 
85 148 
85 149 
85 151 
85 153 
85 154 
85 155 
86 87 
86 88 
86 89 
86 90 
86 91 
86 92 
86 93 
86 94 
86 95 
86 96 
86 97 
86 98 
86 99 
86 100 
86 101 
86 102 
86 103 
86 114 
86 118 
86 124 
86 132 
86 136 
86 137 
86 138 
86 139 
87 88 
87 89 
87 90 
87 91 
87 92 
87 93 
87 94 
87 95 
87 101 
87 104 
87 105 
87 106 
87 107 
87 108 
87 109 
87 113 
87 131 
87 138 
87 141 
87 146 
87 154 
87 155 
88 89 
88 90 
88 91 
88 92 
88 93 
88 94 
88 96 
88 103 
88 104 
88 109 
88 110 
88 111 
88 112 
88 113 
88 114 
88 115 
88 125 
88 129 
88 144 
88 152 
88 153 
89 90 
89 91 
89 92 
89 93 
89 94 
89 98 
89 102 
89 106 
89 109 
89 110 
89 112 
89 122 
89 127 
89 128 
89 129 
89 130 
89 131 
89 143 
89 147 
89 150 
90 91 
90 92 
90 93 
90 94 
90 97 
90 99 
90 113 
90 117 
90 122 
90 123 
90 128 
90 132 
90 133 
90 134 
90 135 
90 139 
90 142 
90 144 
90 147 
90 151 
90 154 
91 92 
91 93 
91 94 
91 100 
91 106 
91 111 
91 114 
91 119 
91 120 
91 125 
91 128 
91 133 
91 137 
91 140 
91 141 
91 142 
91 146 
91 147 
91 148 
92 93 
92 94 
92 100 
92 101 
92 107 
92 115 
92 117 
92 120 
92 124 
92 132 
92 140 
92 143 
92 144 
92 148 
92 149 
92 153 
92 155 
93 94 
93 107 
93 112 
93 121 
93 126 
93 130 
93 133 
93 134 
93 136 
93 137 
93 141 
93 143 
93 145 
93 150 
93 153 
93 154 
94 102 
94 103 
94 105 
94 115 
94 119 
94 123 
94 130 
94 135 
94 136 
94 138 
94 145 
94 149 
94 150 
94 151 
94 155 
95 96 
95 97 
95 98 
95 99 
95 100 
95 101 
95 102 
95 103 
95 104 
95 105 
95 106 
95 107 
95 108 
95 109 
95 111 
95 116 
95 122 
95 123 
95 124 
95 125 
95 126 
95 127 
96 97 
96 98 
96 99 
96 100 
96 101 
96 102 
96 103 
96 104 
96 108 
96 110 
96 111 
96 112 
96 113 
96 114 
96 115 
96 121 
96 127 
96 131 
96 135 
96 139 
96 145 
96 152 
97 98 
97 99 
97 100 
97 101 
97 102 
97 103 
97 105 
97 110 
97 116 
97 117 
97 118 
97 119 
97 120 
97 121 
97 122 
97 139 
97 142 
97 144 
97 147 
97 151 
97 154 
98 99 
98 100 
98 101 
98 102 
98 103 
98 104 
98 106 
98 112 
98 116 
98 122 
98 128 
98 129 
98 130 
98 131 
98 134 
98 140 
98 148 
98 151 
98 152 
99 100 
99 101 
99 102 
99 103 
99 108 
99 113 
99 117 
99 118 
99 123 
99 126 
99 128 
99 129 
99 132 
99 133 
99 134 
99 135 
99 142 
99 146 
99 149 
100 101 
100 102 
100 103 
100 107 
100 114 
100 117 
100 119 
100 124 
100 125 
100 128 
100 140 
100 141 
100 142 
100 148 
100 149 
100 153 
100 155 
101 102 
101 103 
101 113 
101 115 
101 120 
101 131 
101 132 
101 138 
101 140 
101 141 
101 143 
101 144 
101 146 
101 154 
101 155 
102 103 
102 105 
102 109 
102 110 
102 115 
102 127 
102 130 
102 135 
102 136 
102 143 
102 147 
102 150 
102 155 
103 109 
103 119 
103 123 
103 125 
103 129 
103 138 
103 144 
103 145 
103 149 
103 150 
103 151 
103 152 
103 153 
104 105 
104 106 
104 107 
104 108 
104 109 
104 110 
104 111 
104 112 
104 113 
104 114 
104 115 
104 116 
104 134 
104 140 
104 148 
104 151 
104 152 
105 106 
105 107 
105 108 
105 109 
105 110 
105 115 
105 116 
105 117 
105 118 
105 119 
105 120 
105 121 
105 130 
105 135 
105 136 
105 155 
106 107 
106 108 
106 109 
106 111 
106 112 
106 120 
106 122 
106 128 
106 129 
106 130 
106 131 
106 133 
106 137 
106 146 
106 147 
106 148 
107 108 
107 109 
107 112 
107 117 
107 124 
107 133 
107 136 
107 141 
107 143 
107 145 
107 148 
107 149 
107 153 
107 155 
108 109 
108 118 
108 121 
108 126 
108 127 
108 129 
108 131 
108 135 
108 139 
108 142 
108 145 
108 146 
108 149 
108 152 
109 110 
109 125 
109 127 
109 129 
109 143 
109 144 
109 147 
109 150 
109 152 
109 153 
110 111 
110 112 
110 113 
110 114 
110 115 
110 116 
110 117 
110 118 
110 119 
110 120 
110 121 
110 127 
110 143 
110 147 
110 150 
111 112 
111 113 
111 114 
111 115 
111 116 
111 120 
111 122 
111 123 
111 124 
111 125 
111 126 
111 127 
111 133 
111 137 
111 146 
111 147 
111 148 
112 113 
112 114 
112 115 
112 122 
112 128 
112 129 
112 130 
112 131 
112 133 
112 136 
112 141 
112 143 
112 145 
113 114 
113 115 
113 117 
113 123 
113 128 
113 131 
113 132 
113 133 
113 134 
113 135 
113 138 
113 141 
113 146 
113 154 
113 155 
114 115 
114 118 
114 119 
114 124 
114 125 
114 128 
114 132 
114 136 
114 137 
114 138 
114 139 
114 140 
114 141 
114 142 
115 120 
115 130 
115 132 
115 135 
115 136 
115 140 
115 143 
115 144 
115 155 
116 117 
116 118 
116 119 
116 120 
116 121 
116 122 
116 123 
116 124 
116 125 
116 126 
116 127 
116 134 
116 140 
116 148 
116 151 
116 152 
117 118 
117 119 
117 120 
117 121 
117 123 
117 124 
117 128 
117 132 
117 133 
117 134 
117 135 
117 148 
117 149 
117 153 
117 155 
118 119 
118 120 
118 121 
118 124 
118 126 
118 129 
118 132 
118 136 
118 137 
118 138 
118 139 
118 142 
118 146 
118 149 
119 120 
119 121 
119 123 
119 125 
119 128 
119 138 
119 140 
119 141 
119 142 
119 145 
119 149 
119 150 
119 151 
120 121 
120 132 
120 133 
120 137 
120 140 
120 143 
120 144 
120 146 
120 147 
120 148 
121 126 
121 127 
121 130 
121 131 
121 134 
121 135 
121 137 
121 139 
121 145 
121 150 
121 152 
121 153 
121 154 
122 123 
122 124 
122 125 
122 126 
122 127 
122 128 
122 129 
122 130 
122 131 
122 139 
122 142 
122 144 
122 147 
122 151 
122 154 
123 124 
123 125 
123 126 
123 127 
123 128 
123 132 
123 133 
123 134 
123 135 
123 138 
123 145 
123 149 
123 150 
123 151 
124 125 
124 126 
124 127 
124 132 
124 136 
124 137 
124 138 
124 139 
124 148 
124 149 
124 153 
124 155 
125 126 
125 127 
125 128 
125 129 
125 140 
125 141 
125 142 
125 144 
125 152 
125 153 
126 127 
126 129 
126 130 
126 134 
126 137 
126 142 
126 146 
126 149 
126 150 
126 153 
126 154 
127 131 
127 135 
127 139 
127 143 
127 145 
127 147 
127 150 
127 152 
128 129 
128 130 
128 131 
128 132 
128 133 
128 134 
128 135 
128 140 
128 141 
128 142 
129 130 
129 131 
129 142 
129 144 
129 146 
129 149 
129 152 
129 153 
130 131 
130 134 
130 135 
130 136 
130 137 
130 150 
130 153 
130 154 
130 155 
131 135 
131 138 
131 139 
131 141 
131 145 
131 146 
131 152 
131 154 
131 155 
132 133 
132 134 
132 135 
132 136 
132 137 
132 138 
132 139 
132 140 
132 143 
132 144 
133 134 
133 135 
133 136 
133 137 
133 141 
133 143 
133 145 
133 146 
133 147 
133 148 
134 135 
134 137 
134 140 
134 148 
134 150 
134 151 
134 152 
134 153 
134 154 
135 136 
135 139 
135 145 
135 152 
135 155 
136 137 
136 138 
136 139 
136 141 
136 143 
136 145 
136 155 
137 138 
137 139 
137 146 
137 147 
137 148 
137 150 
137 153 
137 154 
138 139 
138 141 
138 145 
138 146 
138 149 
138 150 
138 151 
138 154 
138 155 
139 142 
139 144 
139 145 
139 147 
139 151 
139 152 
139 154 
140 141 
140 142 
140 143 
140 144 
140 148 
140 151 
140 152 
141 142 
141 143 
141 145 
141 146 
141 154 
141 155 
142 144 
142 146 
142 147 
142 149 
142 151 
142 154 
143 144 
143 145 
143 147 
143 150 
144 147 
144 151 
144 152 
144 153 
144 154 
145 149 
145 150 
145 151 
145 152 
146 147 
146 148 
146 149 
146 154 
146 155 
147 148 
147 150 
147 151 
147 154 
148 149 
148 151 
148 152 
148 153 
148 155 
149 150 
149 151 
149 153 
149 155 
150 151 
150 153 
150 154 
151 152 
151 154 
152 153 
153 154 
153 155 
154 155 
